(set-logic ALL)
(declare-fun var0 () String)
(assert (str.in_re var0 (re.++ (re.+ (re.* (str.to_re "000"))) (re.++ (re.* (re.* (str.to_re "111"))) (re.++ (re.* (re.+ (str.to_re "222"))) (re.++ (re.+ (re.* (str.to_re "333"))) (re.++ (re.* (re.+ (str.to_re "444"))) (re.++ (re.union (re.+ (str.to_re "555")) (re.+ (str.to_re "6"))) (re.++ (re.+ (re.+ (str.to_re "777"))) (re.++ (re.* (re.+ (str.to_re "88"))) (re.++ (re.union (re.+ (str.to_re "99")) (re.+ (str.to_re "aa"))) (re.* (re.union (str.to_re "bbb") (str.to_re "ccc"))))))))))))))
(assert (<= 251 (str.len var0)))
(check-sat)